(set-info :status sat)
(declare-const symbol_225 (_ BitVec 32))
(declare-const symbol_71 (_ BitVec 32))
(declare-const symbol_317 (_ BitVec 32))
(declare-const symbol_298 (_ BitVec 32))
(declare-const symbol_125 (_ BitVec 32))
(declare-const symbol_338 (_ BitVec 32))
(declare-const symbol_42 (_ BitVec 32))
(declare-const symbol_156 (_ BitVec 32))
(declare-const symbol_198 (_ BitVec 32))
(declare-const symbol_296 (_ BitVec 32))
(declare-const symbol_152 (_ BitVec 32))
(declare-const symbol_247 (_ BitVec 32))
(declare-const symbol_224 (_ BitVec 32))
(declare-const symbol_54 (_ BitVec 32))
(declare-const symbol_272 (_ BitVec 32))
(declare-const symbol_106 (_ BitVec 32))
(declare-const symbol_167 (_ BitVec 32))
(declare-const symbol_137 (_ BitVec 32))
(declare-const symbol_254 (_ BitVec 32))
(declare-const symbol_243 (_ BitVec 32))
(declare-const symbol_171 (_ BitVec 32))
(declare-const symbol_102 (_ BitVec 32))
(declare-const symbol_77 (_ BitVec 32))
(declare-const symbol_60 (_ BitVec 32))
(declare-const symbol_84 (_ BitVec 32))
(declare-const symbol_284 (_ BitVec 32))
(declare-const symbol_241 (_ BitVec 32))
(declare-const symbol_352 (_ BitVec 32))
(declare-const symbol_158 (_ BitVec 32))
(declare-const symbol_29 (_ BitVec 32))
(declare-const symbol_23 (_ BitVec 32))
(declare-const symbol_323 (_ BitVec 32))
(declare-const symbol_104 (_ BitVec 32))
(declare-const symbol_348 (_ BitVec 32))
(declare-const symbol_96 (_ BitVec 32))
(declare-const symbol_181 (_ BitVec 32))
(declare-const symbol_47 (_ BitVec 32))
(declare-const symbol_52 (_ BitVec 32))
(declare-const symbol_16 (_ BitVec 32))
(declare-const symbol_11 (_ BitVec 32))
(declare-const symbol_14 (_ BitVec 32))
(declare-const symbol_311 (_ BitVec 32))
(declare-const symbol_221 (_ BitVec 32))
(declare-const symbol_24 (_ BitVec 32))
(declare-const symbol_1 (_ BitVec 32))
(declare-const symbol_264 (_ BitVec 32))
(declare-const symbol_185 (_ BitVec 32))
(declare-const symbol_67 (_ BitVec 32))
(declare-const symbol_219 (_ BitVec 32))
(declare-const symbol_176 (_ BitVec 32))
(declare-const symbol_79 (_ BitVec 32))
(declare-const symbol_62 (_ BitVec 32))
(declare-const symbol_233 (_ BitVec 32))
(declare-const symbol_228 (_ BitVec 32))
(declare-const symbol_336 (_ BitVec 32))
(declare-const symbol_328 (_ BitVec 32))
(declare-const symbol_287 (_ BitVec 32))
(declare-const symbol_274 (_ BitVec 32))
(declare-const symbol_344 (_ BitVec 32))
(declare-const symbol_200 (_ BitVec 32))
(declare-const symbol_40 (_ BitVec 32))
(declare-const symbol_300 (_ BitVec 32))
(declare-const symbol_278 (_ BitVec 32))
(declare-const symbol_235 (_ BitVec 32))
(declare-const symbol_136 (_ BitVec 32))
(declare-const symbol_21 (_ BitVec 32))
(declare-const symbol_43 (_ BitVec 32))
(declare-const symbol_326 (_ BitVec 32))
(declare-const symbol_350 (_ BitVec 32))
(declare-const symbol_154 (_ BitVec 32))
(declare-const symbol_86 (_ BitVec 32))
(declare-const symbol_342 (_ BitVec 32))
(declare-const symbol_98 (_ BitVec 32))
(declare-const symbol_31 (_ BitVec 32))
(declare-const symbol_20 (_ BitVec 32))
(declare-const symbol_239 (_ BitVec 32))
(declare-const symbol_7 (_ BitVec 32))
(declare-const symbol_340 (_ BitVec 32))
(declare-const symbol_212 (_ BitVec 32))
(declare-const symbol_208 (_ BitVec 32))
(declare-const symbol_194 (_ BitVec 32))
(declare-const symbol_210 (_ BitVec 32))
(declare-const symbol_12 (_ BitVec 32))
(declare-const symbol_290 (_ BitVec 32))
(declare-const symbol_215 (_ BitVec 32))
(declare-const symbol_5 (_ BitVec 32))
(declare-const symbol_309 (_ BitVec 32))
(declare-const symbol_90 (_ BitVec 32))
(declare-const symbol_321 (_ BitVec 32))
(declare-const symbol_150 (_ BitVec 32))
(declare-const symbol_346 (_ BitVec 32))
(declare-const symbol_304 (_ BitVec 32))
(declare-const symbol_163 (_ BitVec 32))
(declare-const symbol_260 (_ BitVec 32))
(declare-const symbol_160 (_ BitVec 32))
(declare-const symbol_330 (_ BitVec 32))
(declare-const symbol_294 (_ BitVec 32))
(declare-const symbol_144 (_ BitVec 32))
(declare-const symbol_134 (_ BitVec 32))
(declare-const symbol_112 (_ BitVec 32))
(declare-const symbol_27 (_ BitVec 32))
(declare-const symbol_303 (_ BitVec 32))
(declare-const symbol_118 (_ BitVec 32))
(declare-const symbol_252 (_ BitVec 32))
(declare-const symbol_45 (_ BitVec 32))
(declare-const symbol_132 (_ BitVec 32))
(declare-const symbol_334 (_ BitVec 32))
(declare-const symbol_319 (_ BitVec 32))
(declare-const symbol_49 (_ BitVec 32))
(declare-const symbol_141 (_ BitVec 32))
(declare-const symbol_204 (_ BitVec 32))
(declare-const symbol_116 (_ BitVec 32))
(declare-const symbol_75 (_ BitVec 32))
(declare-const symbol_237 (_ BitVec 32))
(declare-const symbol_249 (_ BitVec 32))
(declare-const symbol_0 (_ BitVec 32))
(declare-const symbol_139 (_ BitVec 32))
(declare-const symbol_9 (_ BitVec 32))
(declare-const symbol_92 (_ BitVec 32))
(declare-const symbol_315 (_ BitVec 32))
(declare-const symbol_306 (_ BitVec 32))
(declare-const symbol_230 (_ BitVec 32))
(declare-const symbol_192 (_ BitVec 32))
(declare-const symbol_188 (_ BitVec 32))
(declare-const symbol_179 (_ BitVec 32))
(declare-const symbol_36 (_ BitVec 32))
(declare-const symbol_64 (_ BitVec 32))
(declare-const symbol_183 (_ BitVec 32))
(declare-const symbol_108 (_ BitVec 32))
(declare-const symbol_285 (_ BitVec 32))
(declare-const symbol_270 (_ BitVec 32))
(declare-const symbol_34 (_ BitVec 32))
(declare-const symbol_3 (_ BitVec 32))
(declare-const symbol_123 (_ BitVec 32))
(declare-const symbol_38 (_ BitVec 32))
(declare-const symbol_262 (_ BitVec 32))
(declare-const symbol_196 (_ BitVec 32))
(declare-const symbol_100 (_ BitVec 32))
(declare-const symbol_57 (_ BitVec 32))
(declare-const symbol_127 (_ BitVec 32))
(declare-const symbol_282 (_ BitVec 32))
(declare-const symbol_202 (_ BitVec 32))
(declare-const symbol_94 (_ BitVec 32))
(declare-const symbol_72 (_ BitVec 32))
(declare-const symbol_173 (_ BitVec 32))
(declare-const symbol_177 (_ BitVec 32))
(declare-const symbol_258 (_ BitVec 32))
(declare-const symbol_18 (_ BitVec 32))
(declare-const symbol_266 (_ BitVec 32))
(declare-const symbol_313 (_ BitVec 32))
(declare-const symbol_169 (_ BitVec 32))
(declare-const symbol_111 (_ BitVec 32))
(declare-const symbol_120 (_ BitVec 32))
(declare-const symbol_190 (_ BitVec 32))
(declare-const symbol_174 (_ BitVec 32))
(declare-const symbol_142 (_ BitVec 32))
(declare-const symbol_89 (_ BitVec 32))
(declare-const symbol_292 (_ BitVec 32))
(declare-const symbol_256 (_ BitVec 32))
(declare-const symbol_217 (_ BitVec 32))
(declare-const symbol_206 (_ BitVec 32))
(declare-const symbol_186 (_ BitVec 32))
(declare-const symbol_276 (_ BitVec 32))
(declare-const symbol_279 (_ BitVec 32))
(declare-const symbol_165 (_ BitVec 32))
(declare-const symbol_268 (_ BitVec 32))
(declare-const symbol_146 (_ BitVec 32))
(declare-const symbol_148 (_ BitVec 32))
(declare-const symbol_69 (_ BitVec 32))
(declare-const symbol_332 (_ BitVec 32))
(declare-const symbol_129 (_ BitVec 32))
(declare-const symbol_114 (_ BitVec 32))
(declare-const symbol_245 (_ BitVec 32))
(declare-const symbol_81 (_ BitVec 32))
(declare-const symbol_214 (_ BitVec 32))
(declare-const symbol_87 (_ BitVec 32))
(assert (not (= symbol_352 (_ bv15 32))))
(assert (not (not (= symbol_352 (_ bv6 32)))))
(assert (not (not (= symbol_350 (_ bv6 32)))))
(assert (not (not (= symbol_348 (_ bv6 32)))))
(assert (not (not (= symbol_346 (_ bv6 32)))))
(assert (not (not (= symbol_344 (_ bv6 32)))))
(assert (not (not (= symbol_342 (_ bv6 32)))))
(assert (not (not (= symbol_340 (_ bv6 32)))))
(assert (not (not (= symbol_338 (_ bv6 32)))))
(assert (not (not (= symbol_336 (_ bv6 32)))))
(assert (not (not (= symbol_334 (_ bv6 32)))))
(assert (not (not (= symbol_332 (_ bv6 32)))))
(assert (not (not (= symbol_330 (_ bv6 32)))))
(assert (not (not (= symbol_328 (_ bv6 32)))))
(assert (not (not (= symbol_326 (_ bv6 32)))))
(assert (not (not (= symbol_323 (_ bv6 32)))))
(assert (not (not (= symbol_321 (_ bv6 32)))))
(assert (not (not (= symbol_319 (_ bv6 32)))))
(assert (not (not (= symbol_317 (_ bv6 32)))))
(assert (not (not (= symbol_315 (_ bv6 32)))))
(assert (not (not (= symbol_313 (_ bv6 32)))))
(assert (not (not (= symbol_311 (_ bv6 32)))))
(assert (not (not (= symbol_309 (_ bv6 32)))))
(assert (not (not (= symbol_306 (_ bv6 32)))))
(assert (not (not (= symbol_304 (_ bv6 32)))))
(assert (not (not (= symbol_303 (_ bv6 32)))))
(assert (not (not (= symbol_300 (_ bv6 32)))))
(assert (not (not (= symbol_298 (_ bv6 32)))))
(assert (not (not (= symbol_296 (_ bv6 32)))))
(assert (not (not (= symbol_294 (_ bv6 32)))))
(assert (not (not (= symbol_292 (_ bv6 32)))))
(assert (not (not (= symbol_290 (_ bv6 32)))))
(assert (not (not (= symbol_287 (_ bv6 32)))))
(assert (not (not (= symbol_285 (_ bv6 32)))))
(assert (not (not (= symbol_284 (_ bv6 32)))))
(assert (not (not (= symbol_282 (_ bv6 32)))))
(assert (not (not (= symbol_279 (_ bv6 32)))))
(assert (not (not (= symbol_278 (_ bv6 32)))))
(assert (not (not (= symbol_276 (_ bv6 32)))))
(assert (not (not (= symbol_274 (_ bv6 32)))))
(assert (not (not (= symbol_272 (_ bv6 32)))))
(assert (not (not (= symbol_270 (_ bv6 32)))))
(assert (not (not (= symbol_268 (_ bv6 32)))))
(assert (not (not (= symbol_266 (_ bv6 32)))))
(assert (not (not (= symbol_264 (_ bv6 32)))))
(assert (not (not (= symbol_262 (_ bv6 32)))))
(assert (not (not (= symbol_260 (_ bv6 32)))))
(assert (not (not (= symbol_258 (_ bv6 32)))))
(assert (not (not (= symbol_256 (_ bv6 32)))))
(assert (not (not (= symbol_254 (_ bv6 32)))))
(assert (not (not (= symbol_252 (_ bv6 32)))))
(assert (not (not (= symbol_249 (_ bv6 32)))))
(assert (not (not (= symbol_247 (_ bv6 32)))))
(assert (not (not (= symbol_245 (_ bv6 32)))))
(assert (not (not (= symbol_243 (_ bv6 32)))))
(assert (not (not (= symbol_241 (_ bv6 32)))))
(assert (not (not (= symbol_239 (_ bv6 32)))))
(assert (not (not (= symbol_237 (_ bv6 32)))))
(assert (not (not (= symbol_235 (_ bv6 32)))))
(assert (not (not (= symbol_233 (_ bv6 32)))))
(assert (not (not (= symbol_230 (_ bv6 32)))))
(assert (not (not (= symbol_228 (_ bv6 32)))))
(assert (not (not (= symbol_225 (_ bv6 32)))))
(assert (not (not (= symbol_224 (_ bv6 32)))))
(assert (not (not (= symbol_221 (_ bv6 32)))))
(assert (not (not (= symbol_219 (_ bv6 32)))))
(assert (not (not (= symbol_217 (_ bv6 32)))))
(assert (not (not (= symbol_215 (_ bv6 32)))))
(assert (not (not (= symbol_214 (_ bv6 32)))))
(assert (not (not (= symbol_212 (_ bv6 32)))))
(assert (not (not (= symbol_210 (_ bv6 32)))))
(assert (not (not (= symbol_208 (_ bv6 32)))))
(assert (not (not (= symbol_206 (_ bv6 32)))))
(assert (not (not (= symbol_204 (_ bv6 32)))))
(assert (not (not (= symbol_202 (_ bv6 32)))))
(assert (not (not (= symbol_200 (_ bv6 32)))))
(assert (not (not (= symbol_198 (_ bv6 32)))))
(assert (not (not (= symbol_196 (_ bv6 32)))))
(assert (not (not (= symbol_194 (_ bv6 32)))))
(assert (not (not (= symbol_192 (_ bv6 32)))))
(assert (not (not (= symbol_190 (_ bv6 32)))))
(assert (not (not (= symbol_188 (_ bv6 32)))))
(assert (not (not (= symbol_186 (_ bv6 32)))))
(assert (not (not (= symbol_185 (_ bv6 32)))))
(assert (not (not (= symbol_183 (_ bv6 32)))))
(assert (not (not (= symbol_181 (_ bv6 32)))))
(assert (not (not (= symbol_179 (_ bv6 32)))))
(assert (not (not (= symbol_177 (_ bv6 32)))))
(assert (not (not (= symbol_176 (_ bv6 32)))))
(assert (not (not (= symbol_174 (_ bv6 32)))))
(assert (not (not (= symbol_173 (_ bv6 32)))))
(assert (not (not (= symbol_171 (_ bv6 32)))))
(assert (not (not (= symbol_169 (_ bv6 32)))))
(assert (not (not (= symbol_167 (_ bv6 32)))))
(assert (not (not (= symbol_165 (_ bv6 32)))))
(assert (not (not (= symbol_163 (_ bv6 32)))))
(assert (not (not (= symbol_160 (_ bv6 32)))))
(assert (not (not (= symbol_158 (_ bv6 32)))))
(assert (not (not (= symbol_156 (_ bv6 32)))))
(assert (not (not (= symbol_154 (_ bv6 32)))))
(assert (not (not (= symbol_152 (_ bv6 32)))))
(assert (not (not (= symbol_150 (_ bv6 32)))))
(assert (not (not (= symbol_148 (_ bv6 32)))))
(assert (not (not (= symbol_146 (_ bv6 32)))))
(assert (not (not (= symbol_144 (_ bv6 32)))))
(assert (not (not (= symbol_142 (_ bv6 32)))))
(assert (not (not (= symbol_141 (_ bv6 32)))))
(assert (not (not (= symbol_139 (_ bv6 32)))))
(assert (not (not (= symbol_137 (_ bv6 32)))))
(assert (not (not (= symbol_136 (_ bv6 32)))))
(assert (not (not (= symbol_134 (_ bv6 32)))))
(assert (not (not (= symbol_132 (_ bv6 32)))))
(assert (not (not (= symbol_129 (_ bv6 32)))))
(assert (not (not (= symbol_127 (_ bv6 32)))))
(assert (not (not (= symbol_125 (_ bv6 32)))))
(assert (not (not (= symbol_123 (_ bv6 32)))))
(assert (not (not (= symbol_120 (_ bv6 32)))))
(assert (not (not (= symbol_118 (_ bv6 32)))))
(assert (not (not (= symbol_116 (_ bv6 32)))))
(assert (not (not (= symbol_114 (_ bv6 32)))))
(assert (not (not (= symbol_112 (_ bv6 32)))))
(assert (not (not (= symbol_111 (_ bv6 32)))))
(assert (not (not (= symbol_108 (_ bv6 32)))))
(assert (not (not (= symbol_106 (_ bv6 32)))))
(assert (not (not (= symbol_104 (_ bv6 32)))))
(assert (not (not (= symbol_102 (_ bv6 32)))))
(assert (not (not (= symbol_100 (_ bv6 32)))))
(assert (not (not (= symbol_98 (_ bv6 32)))))
(assert (not (not (= symbol_96 (_ bv6 32)))))
(assert (not (not (= symbol_94 (_ bv6 32)))))
(assert (not (not (= symbol_92 (_ bv6 32)))))
(assert (not (not (= symbol_90 (_ bv6 32)))))
(assert (not (not (= symbol_89 (_ bv6 32)))))
(assert (not (not (= symbol_87 (_ bv6 32)))))
(assert (not (not (= symbol_86 (_ bv6 32)))))
(assert (not (not (= symbol_84 (_ bv6 32)))))
(assert (not (not (= symbol_81 (_ bv6 32)))))
(assert (not (not (= symbol_79 (_ bv6 32)))))
(assert (not (not (= symbol_77 (_ bv6 32)))))
(assert (not (not (= symbol_75 (_ bv6 32)))))
(assert (not (not (= symbol_72 (_ bv6 32)))))
(assert (not (not (= symbol_71 (_ bv6 32)))))
(assert (not (not (= symbol_69 (_ bv6 32)))))
(assert (not (not (= symbol_67 (_ bv6 32)))))
(assert (not (not (= symbol_64 (_ bv6 32)))))
(assert (not (not (= symbol_62 (_ bv6 32)))))
(assert (not (not (= symbol_60 (_ bv6 32)))))
(assert (not (not (= symbol_57 (_ bv6 32)))))
(assert (not (not (= symbol_54 (_ bv6 32)))))
(assert (not (not (= symbol_52 (_ bv6 32)))))
(assert (not (not (= symbol_49 (_ bv6 32)))))
(assert (not (not (= symbol_47 (_ bv6 32)))))
(assert (not (not (= symbol_45 (_ bv6 32)))))
(assert (not (not (= symbol_43 (_ bv6 32)))))
(assert (not (not (= symbol_42 (_ bv6 32)))))
(assert (not (not (= symbol_40 (_ bv6 32)))))
(assert (not (not (= symbol_38 (_ bv6 32)))))
(assert (not (not (= symbol_36 (_ bv6 32)))))
(assert (not (not (= symbol_34 (_ bv6 32)))))
(assert (not (not (= symbol_31 (_ bv6 32)))))
(assert (not (not (= symbol_29 (_ bv6 32)))))
(assert (not (not (= symbol_27 (_ bv6 32)))))
(assert (not (not (= symbol_24 (_ bv6 32)))))
(assert (not (not (= symbol_23 (_ bv6 32)))))
(assert (not (not (= symbol_21 (_ bv6 32)))))
(assert (not (not (= symbol_20 (_ bv6 32)))))
(assert (not (not (= symbol_18 (_ bv6 32)))))
(assert (not (not (= symbol_16 (_ bv6 32)))))
(assert (not (not (= symbol_14 (_ bv6 32)))))
(assert (not (not (= symbol_12 (_ bv6 32)))))
(assert (not (not (= symbol_11 (_ bv6 32)))))
(assert (not (not (= symbol_9 (_ bv6 32)))))
(assert (not (not (= symbol_7 (_ bv6 32)))))
(assert (not (not (= symbol_5 (_ bv6 32)))))
(assert (not (not (= symbol_3 (_ bv6 32)))))
(assert (not (not (= symbol_1 (_ bv6 32)))))
(assert (not (not (= symbol_0 (_ bv17 32)))))
(assert (not (= symbol_0 (_ bv6 32))))
(check-sat)